11332 44 2
15 87 2
11 54 6
16 98 10
11 74 8
7 56 7
13 63 8
14 71 3
8 23 1
6 98 8
6 39 8
11 17 1
14 21 1
2 33 8
17 57 1
20 41 1
19 69 1
17 11 6
13 43 4
9 18 2
2 63 9
18 83 5
6 53 9
13 28 10
5 91 7
8 90 6
17 78 8
14 94 8
19 69 6
14 94 1
10 30 5
2 57 6
19 68 1
12 100 5
6 40 2
18 46 5
13 63 6
16 20 10
11 73 5
7 94 9
